(benchmark gametime
:status unknown
:logic QF_AUFBV
:extrafuns ((gtINDEX67  BitVec[32]))
:extrafuns ((gtFIELD__bitsForTID0__gtAGG____anonstruct_D_Work_4  Array[32:32]))
:extrafuns ((gtINDEX68  BitVec[32]))
:extrafuns ((gtAGG__rtDWork  BitVec[32]))
:extrafuns ((gtINDEX65  BitVec[32]))
:extrafuns ((gtINDEX66  BitVec[32]))
:extrafuns ((gtINDEX63  BitVec[32]))
:extrafuns ((gtINDEX64  BitVec[32]))
:extrafuns ((gtINDEX61  BitVec[32]))
:extrafuns ((gtINDEX62  BitVec[32]))
:extrafuns ((gtINDEX60  BitVec[32]))
:extrafuns ((gtINDEX59  BitVec[32]))
:extrafuns ((gtINDEX58  BitVec[32]))
:extrafuns ((gtINDEX57  BitVec[32]))
:extrafuns ((gtINDEX55  BitVec[32]))
:extrafuns ((gtINDEX56  BitVec[32]))
:extrafuns ((gtINDEX53  BitVec[32]))
:extrafuns ((gtINDEX54  BitVec[32]))
:extrafuns ((gtINDEX52  BitVec[32]))
:extrafuns ((gtINDEX50  BitVec[32]))
:extrafuns ((gtINDEX51  BitVec[32]))
:extrafuns ((gtINDEX48  BitVec[32]))
:extrafuns ((gtINDEX49  BitVec[32]))
:extrafuns ((gtINDEX47  BitVec[32]))
:extrafuns ((gtINDEX45  BitVec[32]))
:extrafuns ((gtINDEX46  BitVec[32]))
:extrafuns ((gtINDEX43  BitVec[32]))
:extrafuns ((gtINDEX44  BitVec[32]))
:extrafuns ((gtINDEX41  BitVec[32]))
:extrafuns ((gtINDEX42  BitVec[32]))
:extrafuns ((gtINDEX39  BitVec[32]))
:extrafuns ((gtINDEX40  BitVec[32]))
:extrafuns ((gtINDEX37  BitVec[32]))
:extrafuns ((gtINDEX38  BitVec[32]))
:extrafuns ((gtINDEX36  BitVec[32]))
:extrafuns ((gtINDEX34  BitVec[32]))
:extrafuns ((gtINDEX35  BitVec[32]))
:extrafuns ((gtINDEX33  BitVec[32]))
:extrafuns ((gtINDEX31  BitVec[32]))
:extrafuns ((gtINDEX32  BitVec[32]))
:extrafuns ((gtINDEX29  BitVec[32]))
:extrafuns ((gtINDEX30  BitVec[32]))
:extrafuns ((gtINDEX28  BitVec[32]))
:extrafuns ((gtINDEX27  BitVec[32]))
:extrafuns ((gtINDEX26  BitVec[32]))
:extrafuns ((gtINDEX25  BitVec[32]))
:extrafuns ((gtINDEX24  BitVec[32]))
:extrafuns ((gtINDEX22  BitVec[32]))
:extrafuns ((gtINDEX23  BitVec[32]))
:extrafuns ((gtINDEX20  BitVec[32]))
:extrafuns ((gtINDEX21  BitVec[32]))
:extrafuns ((gtINDEX19  BitVec[32]))
:extrafuns ((gtINDEX17  BitVec[32]))
:extrafuns ((gtINDEX18  BitVec[32]))
:extrafuns ((gtINDEX15  BitVec[32]))
:extrafuns ((gtINDEX16  BitVec[32]))
:extrafuns ((gtINDEX14  BitVec[32]))
:extrafuns ((gtINDEX12  BitVec[32]))
:extrafuns ((gtINDEX13  BitVec[32]))
:extrafuns ((gtINDEX10  BitVec[32]))
:extrafuns ((gtINDEX11  BitVec[32]))
:extrafuns ((gtINDEX8  BitVec[32]))
:extrafuns ((gtINDEX9  BitVec[32]))
:extrafuns ((gtINDEX6  BitVec[32]))
:extrafuns ((gtINDEX7  BitVec[32]))
:extrafuns ((gtINDEX4  BitVec[32]))
:extrafuns ((gtINDEX5  BitVec[32]))
:extrafuns ((gtINDEX2  BitVec[32]))
:extrafuns ((gtINDEX3  BitVec[32]))
:extrafuns ((gtINDEX0  BitVec[32]))
:extrafuns ((gtINDEX1  BitVec[32]))
:extrafuns ((gtFIELD__is_Eng__gtAGG____anonstruct_bitsForTID0_5_1_  Array[32:1]))
:extrafuns ((gtFIELD__is_Eng__gtAGG____anonstruct_bitsForTID0_5_2_  Array[32:1]))
:extrafuns ((sf_previousEvent_1_  BitVec[32]))
:extrafuns ((sfEvent__2_  BitVec[32]))
:extrafuns ((gtFIELD__is_Eng__gtAGG____anonstruct_bitsForTID0_5  Array[32:1]))
:extrafuns ((gtFIELD__sent__gtAGG____anonstruct_D_Work_4_1_  Array[32:32]))
:extrafuns ((gtFIELD__sent__gtAGG____anonstruct_D_Work_4_2_  Array[32:32]))
:extrafuns ((gtFIELD__is_active_Eng__gtAGG____anonstruct_bitsForTID0_5  Array[32:1]))
:extrafuns ((sfEvent__1_  BitVec[32]))
:extrafuns ((gtFIELD__is_PURI__gtAGG____anonstruct_bitsForTID0_5  Array[32:2]))
:extrafuns ((gtFIELD__is_active_PURI__gtAGG____anonstruct_bitsForTID0_5  Array[32:1]))
:extrafuns ((gtFIELD__is_PVRP__gtAGG____anonstruct_bitsForTID0_5  Array[32:2]))
:extrafuns ((gtFIELD__is_active_PVRP__gtAGG____anonstruct_bitsForTID0_5  Array[32:1]))
:extrafuns ((gtFIELD__is_active_PPVARP__gtAGG____anonstruct_bitsForTID0_5  Array[32:1]))
:extrafuns ((gtFIELD__is_active_PLRI__gtAGG____anonstruct_bitsForTID0_5  Array[32:1]))
:extrafuns ((gtFIELD__temporalCounter_i1__gtAGG____anonstruct_D_Work_4  Array[32:32]))
:extrafuns ((gtFIELD__temporalCounter_i1__gtAGG____anonstruct_D_Work_4_1_  Array[32:32]))
:extrafuns ((gtFIELD__is_PAVI__gtAGG____anonstruct_bitsForTID0_5  Array[32:3]))
:extrafuns ((gtFIELD__is_PAVI__gtAGG____anonstruct_bitsForTID0_5_1_  Array[32:3]))
:extrafuns ((gtFIELD__n_t__gtAGG____anonstruct_D_Work_4  Array[32:32]))
:extrafuns ((gtFIELD__n_t__gtAGG____anonstruct_D_Work_4_1_  Array[32:32]))
:extrafuns ((gtFIELD__is_active_PAVI__gtAGG____anonstruct_bitsForTID0_5  Array[32:1]))
:extrafuns ((sfEvent_  BitVec[32]))
:extrafuns ((gtFIELD__sent__gtAGG____anonstruct_D_Work_4  Array[32:32]))
:extrapreds ((constraint122 ))
:extrapreds ((constraint121 ))
:extrapreds ((constraint120 ))
:extrapreds ((constraint119 ))
:extrapreds ((constraint118 ))
:extrapreds ((constraint117 ))
:extrapreds ((constraint116 ))
:extrapreds ((constraint115 ))
:extrapreds ((constraint114 ))
:extrapreds ((constraint113 ))
:extrapreds ((constraint112 ))
:extrapreds ((constraint111 ))
:extrapreds ((constraint110 ))
:extrapreds ((constraint109 ))
:extrapreds ((constraint108 ))
:extrapreds ((constraint107 ))
:extrapreds ((constraint106 ))
:extrapreds ((constraint105 ))
:extrapreds ((constraint104 ))
:extrapreds ((constraint103 ))
:extrapreds ((constraint102 ))
:extrapreds ((constraint101 ))
:extrapreds ((constraint100 ))
:extrapreds ((constraint99 ))
:extrapreds ((constraint98 ))
:extrapreds ((constraint97 ))
:extrapreds ((constraint96 ))
:extrapreds ((constraint95 ))
:extrapreds ((constraint94 ))
:extrapreds ((constraint93 ))
:extrapreds ((constraint92 ))
:extrapreds ((constraint91 ))
:extrapreds ((constraint90 ))
:extrapreds ((constraint89 ))
:extrapreds ((constraint88 ))
:extrapreds ((constraint87 ))
:extrapreds ((constraint86 ))
:extrapreds ((constraint85 ))
:extrapreds ((constraint84 ))
:extrapreds ((constraint83 ))
:extrapreds ((constraint82 ))
:extrapreds ((constraint81 ))
:extrapreds ((constraint80 ))
:extrapreds ((constraint79 ))
:extrapreds ((constraint78 ))
:extrapreds ((constraint77 ))
:extrapreds ((constraint76 ))
:extrapreds ((constraint75 ))
:extrapreds ((constraint74 ))
:extrapreds ((constraint73 ))
:extrapreds ((constraint72 ))
:extrapreds ((constraint71 ))
:extrapreds ((constraint70 ))
:extrapreds ((constraint69 ))
:extrapreds ((constraint68 ))
:extrapreds ((constraint67 ))
:extrapreds ((constraint66 ))
:extrapreds ((constraint65 ))
:extrapreds ((constraint64 ))
:extrapreds ((constraint63 ))
:extrapreds ((constraint62 ))
:extrapreds ((constraint61 ))
:extrapreds ((constraint60 ))
:extrapreds ((constraint59 ))
:extrapreds ((constraint58 ))
:extrapreds ((constraint57 ))
:extrapreds ((constraint56 ))
:extrapreds ((constraint55 ))
:extrapreds ((constraint54 ))
:extrapreds ((constraint53 ))
:extrapreds ((constraint52 ))
:extrapreds ((constraint51 ))
:extrapreds ((constraint50 ))
:extrapreds ((constraint49 ))
:extrapreds ((constraint48 ))
:extrapreds ((constraint47 ))
:extrapreds ((constraint46 ))
:extrapreds ((constraint45 ))
:extrapreds ((constraint44 ))
:extrapreds ((constraint43 ))
:extrapreds ((constraint42 ))
:extrapreds ((constraint41 ))
:extrapreds ((constraint40 ))
:extrapreds ((constraint39 ))
:extrapreds ((constraint38 ))
:extrapreds ((constraint37 ))
:extrapreds ((constraint36 ))
:extrapreds ((constraint35 ))
:extrapreds ((constraint34 ))
:extrapreds ((constraint33 ))
:extrapreds ((constraint32 ))
:extrapreds ((constraint31 ))
:extrapreds ((constraint30 ))
:extrapreds ((constraint29 ))
:extrapreds ((constraint28 ))
:extrapreds ((constraint27 ))
:extrapreds ((constraint26 ))
:extrapreds ((constraint25 ))
:extrapreds ((constraint24 ))
:extrapreds ((constraint23 ))
:extrapreds ((constraint22 ))
:extrapreds ((constraint21 ))
:extrapreds ((constraint20 ))
:extrapreds ((constraint19 ))
:extrapreds ((constraint18 ))
:extrapreds ((constraint17 ))
:extrapreds ((constraint16 ))
:extrapreds ((constraint15 ))
:extrapreds ((constraint14 ))
:extrapreds ((constraint13 ))
:extrapreds ((constraint12 ))
:extrapreds ((constraint11 ))
:extrapreds ((constraint10 ))
:extrapreds ((constraint9 ))
:extrapreds ((constraint8 ))
:extrapreds ((constraint7 ))
:extrapreds ((constraint6 ))
:extrapreds ((constraint5 ))
:extrapreds ((constraint4 ))
:extrapreds ((constraint3 ))
:extrapreds ((constraint2 ))
:extrapreds ((constraint1 ))
:extrapreds ((constraint0 ))
:formula
(flet ($x626 (and constraint0 constraint1 constraint2 constraint3 constraint4 constraint5 constraint6 constraint7 constraint8 constraint9 constraint10 constraint11 constraint12 constraint13 constraint14 constraint15 constraint16 constraint17 constraint18 constraint19 constraint20 constraint21 constraint22 constraint23 constraint24 constraint25 constraint26 constraint27 constraint28 constraint29 constraint30 constraint31 constraint32 constraint33 constraint34 constraint35 constraint36 constraint37 constraint38 constraint39 constraint40 constraint41 constraint42 constraint43 constraint44 constraint45 constraint46 constraint47 constraint48 constraint49 constraint50 constraint51 constraint52 constraint53 constraint54 constraint55 constraint56 constraint57 constraint58 constraint59 constraint60 constraint61 constraint62 constraint63 constraint64 constraint65 constraint66 constraint67 constraint68 constraint69 constraint70 constraint71 constraint72 constraint73 constraint74 constraint75 constraint76 constraint77 constraint78 constraint79 constraint80 constraint81 constraint82 constraint83 constraint84 constraint85 constraint86 constraint87 constraint88 constraint89 constraint90 constraint91 constraint92 constraint93 constraint94 constraint95 constraint96 constraint97 constraint98 constraint99 constraint100 constraint101 constraint102 constraint103 constraint104 constraint105 constraint106 constraint107 constraint108 constraint109 constraint110 constraint111 constraint112 constraint113 constraint114 constraint115 constraint116 constraint117 constraint118 constraint119 constraint120 constraint121 constraint122))
(flet ($x378 (= gtINDEX68 (select gtFIELD__bitsForTID0__gtAGG____anonstruct_D_Work_4 gtINDEX67)))
(flet ($x374 (= gtINDEX66 (select gtFIELD__bitsForTID0__gtAGG____anonstruct_D_Work_4 gtINDEX65)))
(flet ($x370 (= gtINDEX64 (select gtFIELD__bitsForTID0__gtAGG____anonstruct_D_Work_4 gtINDEX63)))
(flet ($x366 (= gtINDEX62 (select gtFIELD__bitsForTID0__gtAGG____anonstruct_D_Work_4 gtINDEX61)))
(flet ($x358 (= gtINDEX56 (select gtFIELD__bitsForTID0__gtAGG____anonstruct_D_Work_4 gtINDEX55)))
(flet ($x354 (= gtINDEX54 (select gtFIELD__bitsForTID0__gtAGG____anonstruct_D_Work_4 gtINDEX53)))
(flet ($x349 (= gtINDEX51 (select gtFIELD__bitsForTID0__gtAGG____anonstruct_D_Work_4 gtINDEX50)))
(flet ($x345 (= gtINDEX49 (select gtFIELD__bitsForTID0__gtAGG____anonstruct_D_Work_4 gtINDEX48)))
(flet ($x340 (= gtINDEX46 (select gtFIELD__bitsForTID0__gtAGG____anonstruct_D_Work_4 gtINDEX45)))
(flet ($x336 (= gtINDEX44 (select gtFIELD__bitsForTID0__gtAGG____anonstruct_D_Work_4 gtINDEX43)))
(flet ($x332 (= gtINDEX42 (select gtFIELD__bitsForTID0__gtAGG____anonstruct_D_Work_4 gtINDEX41)))
(flet ($x328 (= gtINDEX40 (select gtFIELD__bitsForTID0__gtAGG____anonstruct_D_Work_4 gtINDEX39)))
(flet ($x324 (= gtINDEX38 (select gtFIELD__bitsForTID0__gtAGG____anonstruct_D_Work_4 gtINDEX37)))
(flet ($x319 (= gtINDEX35 (select gtFIELD__bitsForTID0__gtAGG____anonstruct_D_Work_4 gtINDEX34)))
(flet ($x314 (= gtINDEX32 (select gtFIELD__bitsForTID0__gtAGG____anonstruct_D_Work_4 gtINDEX31)))
(flet ($x310 (= gtINDEX30 (select gtFIELD__bitsForTID0__gtAGG____anonstruct_D_Work_4 gtINDEX29)))
(flet ($x301 (= gtINDEX23 (select gtFIELD__bitsForTID0__gtAGG____anonstruct_D_Work_4 gtINDEX22)))
(flet ($x297 (= gtINDEX21 (select gtFIELD__bitsForTID0__gtAGG____anonstruct_D_Work_4 gtINDEX20)))
(flet ($x292 (= gtINDEX18 (select gtFIELD__bitsForTID0__gtAGG____anonstruct_D_Work_4 gtINDEX17)))
(flet ($x288 (= gtINDEX16 (select gtFIELD__bitsForTID0__gtAGG____anonstruct_D_Work_4 gtINDEX15)))
(flet ($x283 (= gtINDEX13 (select gtFIELD__bitsForTID0__gtAGG____anonstruct_D_Work_4 gtINDEX12)))
(flet ($x279 (= gtINDEX11 (select gtFIELD__bitsForTID0__gtAGG____anonstruct_D_Work_4 gtINDEX10)))
(flet ($x275 (= gtINDEX9 (select gtFIELD__bitsForTID0__gtAGG____anonstruct_D_Work_4 gtINDEX8)))
(flet ($x271 (= gtINDEX7 (select gtFIELD__bitsForTID0__gtAGG____anonstruct_D_Work_4 gtINDEX6)))
(flet ($x267 (= gtINDEX5 (select gtFIELD__bitsForTID0__gtAGG____anonstruct_D_Work_4 gtINDEX4)))
(flet ($x263 (= gtINDEX3 (select gtFIELD__bitsForTID0__gtAGG____anonstruct_D_Work_4 gtINDEX2)))
(flet ($x259 (= gtINDEX1 (select gtFIELD__bitsForTID0__gtAGG____anonstruct_D_Work_4 gtINDEX0)))
(let (?x243 (extract[0:0] bv1[32]))
(let (?x253 (store gtFIELD__is_Eng__gtAGG____anonstruct_bitsForTID0_5_1_ gtINDEX68 ?x243))
(flet ($x486 (iff constraint53 (= gtFIELD__is_Eng__gtAGG____anonstruct_bitsForTID0_5_2_ ?x253)))
(let (?x249 (select gtFIELD__is_Eng__gtAGG____anonstruct_bitsForTID0_5_1_ gtINDEX66))
(let (?x244 (store gtFIELD__is_Eng__gtAGG____anonstruct_bitsForTID0_5 gtINDEX64 ?x243))
(flet ($x480 (iff constraint50 (= gtFIELD__is_Eng__gtAGG____anonstruct_bitsForTID0_5_1_ ?x244)))
(let (?x240 (zero_extend[31] (select gtFIELD__is_Eng__gtAGG____anonstruct_bitsForTID0_5 gtINDEX62)))
(let (?x236 (store gtFIELD__sent__gtAGG____anonstruct_D_Work_4_1_ gtINDEX60 bv0[32]))
(flet ($x476 (iff constraint48 (= gtFIELD__sent__gtAGG____anonstruct_D_Work_4_2_ ?x236)))
(let (?x134 (bvmul bv4294967295[32] bv1[32]))
(flet ($x234 (= (select gtFIELD__sent__gtAGG____anonstruct_D_Work_4_1_ gtINDEX59) ?x134))
(flet ($x230 (= (select gtFIELD__sent__gtAGG____anonstruct_D_Work_4_1_ gtINDEX58) bv9[32]))
(flet ($x226 (= (select gtFIELD__sent__gtAGG____anonstruct_D_Work_4_1_ gtINDEX57) bv4[32]))
(let (?x222 (zero_extend[31] (select gtFIELD__is_Eng__gtAGG____anonstruct_bitsForTID0_5 gtINDEX56)))
(let (?x216 (select gtFIELD__is_active_Eng__gtAGG____anonstruct_bitsForTID0_5 gtINDEX54))
(flet ($x213 (= (select gtFIELD__sent__gtAGG____anonstruct_D_Work_4_1_ gtINDEX52) bv0[32]))
(let (?x204 (select gtFIELD__is_PURI__gtAGG____anonstruct_bitsForTID0_5 gtINDEX51))
(let (?x199 (select gtFIELD__is_active_PURI__gtAGG____anonstruct_bitsForTID0_5 gtINDEX49))
(flet ($x196 (= (select gtFIELD__sent__gtAGG____anonstruct_D_Work_4_1_ gtINDEX47) bv0[32]))
(let (?x191 (select gtFIELD__is_PVRP__gtAGG____anonstruct_bitsForTID0_5 gtINDEX46))
(let (?x186 (select gtFIELD__is_PVRP__gtAGG____anonstruct_bitsForTID0_5 gtINDEX44))
(let (?x181 (select gtFIELD__is_active_PVRP__gtAGG____anonstruct_bitsForTID0_5 gtINDEX42))
(let (?x175 (select gtFIELD__is_active_PPVARP__gtAGG____anonstruct_bitsForTID0_5 gtINDEX40))
(let (?x169 (select gtFIELD__is_active_PLRI__gtAGG____anonstruct_bitsForTID0_5 gtINDEX38))
(let (?x166 (store gtFIELD__temporalCounter_i1__gtAGG____anonstruct_D_Work_4 gtINDEX36 bv0[32]))
(flet ($x442 (iff constraint31 (= gtFIELD__temporalCounter_i1__gtAGG____anonstruct_D_Work_4_1_ ?x166)))
(let (?x163 (store gtFIELD__is_PAVI__gtAGG____anonstruct_bitsForTID0_5 gtINDEX35 (extract[2:0] bv2[32])))
(flet ($x440 (iff constraint30 (= gtFIELD__is_PAVI__gtAGG____anonstruct_bitsForTID0_5_1_ ?x163)))
(flet ($x160 (= gtFIELD__n_t__gtAGG____anonstruct_D_Work_4_1_ (store gtFIELD__n_t__gtAGG____anonstruct_D_Work_4 gtINDEX33 bv0[32])))
(let (?x155 (select gtFIELD__is_PAVI__gtAGG____anonstruct_bitsForTID0_5 gtINDEX32))
(let (?x150 (select gtFIELD__is_active_PAVI__gtAGG____anonstruct_bitsForTID0_5 gtINDEX30))
(flet ($x142 (= gtFIELD__sent__gtAGG____anonstruct_D_Work_4_1_ (store gtFIELD__sent__gtAGG____anonstruct_D_Work_4 gtINDEX28 ?x134)))
(flet ($x139 (= (select gtFIELD__sent__gtAGG____anonstruct_D_Work_4 gtINDEX27) bv1[32]))
(flet ($x135 (= (select gtFIELD__sent__gtAGG____anonstruct_D_Work_4 gtINDEX26) ?x134))
(flet ($x129 (= (select gtFIELD__sent__gtAGG____anonstruct_D_Work_4 gtINDEX25) bv9[32]))
(flet ($x124 (= (select gtFIELD__sent__gtAGG____anonstruct_D_Work_4 gtINDEX24) bv4[32]))
(let (?x120 (zero_extend[31] (select gtFIELD__is_Eng__gtAGG____anonstruct_bitsForTID0_5 gtINDEX23)))
(let (?x114 (select gtFIELD__is_active_Eng__gtAGG____anonstruct_bitsForTID0_5 gtINDEX21))
(flet ($x111 (= (select gtFIELD__sent__gtAGG____anonstruct_D_Work_4 gtINDEX19) bv0[32]))
(let (?x100 (select gtFIELD__is_PURI__gtAGG____anonstruct_bitsForTID0_5 gtINDEX18))
(let (?x95 (select gtFIELD__is_active_PURI__gtAGG____anonstruct_bitsForTID0_5 gtINDEX16))
(flet ($x92 (= (select gtFIELD__sent__gtAGG____anonstruct_D_Work_4 gtINDEX14) bv0[32]))
(let (?x87 (select gtFIELD__is_PVRP__gtAGG____anonstruct_bitsForTID0_5 gtINDEX13))
(let (?x82 (select gtFIELD__is_PVRP__gtAGG____anonstruct_bitsForTID0_5 gtINDEX11))
(let (?x77 (select gtFIELD__is_active_PVRP__gtAGG____anonstruct_bitsForTID0_5 gtINDEX9))
(let (?x71 (select gtFIELD__is_active_PPVARP__gtAGG____anonstruct_bitsForTID0_5 gtINDEX7))
(let (?x65 (select gtFIELD__is_active_PLRI__gtAGG____anonstruct_bitsForTID0_5 gtINDEX5))
(let (?x55 (zero_extend[29] (select gtFIELD__is_PAVI__gtAGG____anonstruct_bitsForTID0_5 gtINDEX3)))
(let (?x48 (select gtFIELD__is_active_PAVI__gtAGG____anonstruct_bitsForTID0_5 gtINDEX1))
(flet ($x625 (and (iff constraint0 (not (= sfEvent_ bv8[32]))) (iff constraint1 (not (= (zero_extend[31] ?x48) bv0[32]))) (iff constraint2 (= ?x55 bv1[32])) (iff constraint3 (not (= sfEvent_ bv2[32]))) (iff constraint4 (not (= sfEvent_ bv3[32]))) (iff constraint5 (not (not (= (zero_extend[31] ?x65) bv0[32])))) (iff constraint6 (not (not (= (zero_extend[31] ?x71) bv0[32])))) (iff constraint7 (not (= (zero_extend[31] ?x77) bv0[32]))) (iff constraint8 (not (= (zero_extend[30] ?x82) bv1[32]))) (iff constraint9 (= (zero_extend[30] ?x87) bv2[32])) (iff constraint10 (not $x92)) (iff constraint11 (not (= (zero_extend[31] ?x95) bv0[32]))) (iff constraint12 (= (zero_extend[30] ?x100) bv1[32])) (iff constraint13 (not (= sfEvent_ bv4[32]))) (iff constraint14 (not (= sfEvent_ bv5[32]))) (iff constraint15 (not $x111)) (iff constraint16 (not (= (zero_extend[31] ?x114) bv0[32]))) (iff constraint17 (= ?x120 bv1[32])) (iff constraint18 (not $x124)) (iff constraint19 (not $x129)) (iff constraint20 (not $x135)) (iff constraint21 $x139) (iff constraint22 $x142) (iff constraint23 (= sf_previousEvent_1_ sfEvent_)) (iff constraint24 (= sfEvent__1_ bv2[32])) (iff constraint25 (not (= sfEvent__1_ bv8[32]))) (iff constraint26 (not (= (zero_extend[31] ?x150) bv0[32]))) (iff constraint27 (= (zero_extend[29] ?x155) bv1[32])) (iff constraint28 (= sfEvent__1_ bv2[32])) (iff constraint29 $x160) $x440 $x442 (iff constraint32 (not (not (= (zero_extend[31] ?x169) bv0[32])))) (iff constraint33 (not (not (= (zero_extend[31] ?x175) bv0[32])))) (iff constraint34 (not (= (zero_extend[31] ?x181) bv0[32]))) (iff constraint35 (not (= (zero_extend[30] ?x186) bv1[32]))) (iff constraint36 (= (zero_extend[30] ?x191) bv2[32])) (iff constraint37 (not $x196)) (iff constraint38 (not (= (zero_extend[31] ?x199) bv0[32]))) (iff constraint39 (= (zero_extend[30] ?x204) bv1[32])) (iff constraint40 (not (= sfEvent__1_ bv4[32]))) (iff constraint41 (not (= sfEvent__1_ bv5[32]))) (iff constraint42 (not $x213)) (iff constraint43 (not (= (zero_extend[31] ?x216) bv0[32]))) (iff constraint44 (= ?x222 bv1[32])) (iff constraint45 (not $x226)) (iff constraint46 (not $x230)) (iff constraint47 $x234) $x476 (iff constraint49 (= ?x240 bv1[32])) $x480 (iff constraint51 (= sfEvent__2_ sf_previousEvent_1_)) (iff constraint52 (= (zero_extend[31] ?x249) bv1[32])) $x486 (iff constraint54 (= gtINDEX0 gtAGG__rtDWork)) (iff constraint55 $x259) (iff constraint56 (= gtINDEX2 gtAGG__rtDWork)) (iff constraint57 $x263) (iff constraint58 (= gtINDEX4 gtAGG__rtDWork)) (iff constraint59 $x267) (iff constraint60 (= gtINDEX6 gtAGG__rtDWork)) (iff constraint61 $x271) (iff constraint62 (= gtINDEX8 gtAGG__rtDWork)) (iff constraint63 $x275) (iff constraint64 (= gtINDEX10 gtAGG__rtDWork)) (iff constraint65 $x279) (iff constraint66 (= gtINDEX12 gtAGG__rtDWork)) (iff constraint67 $x283) (iff constraint68 (= gtINDEX14 gtAGG__rtDWork)) (iff constraint69 (= gtINDEX15 gtAGG__rtDWork)) (iff constraint70 $x288) (iff constraint71 (= gtINDEX17 gtAGG__rtDWork)) (iff constraint72 $x292) (iff constraint73 (= gtINDEX19 gtAGG__rtDWork)) (iff constraint74 (= gtINDEX20 gtAGG__rtDWork)) (iff constraint75 $x297) (iff constraint76 (= gtINDEX22 gtAGG__rtDWork)) (iff constraint77 $x301) (iff constraint78 (= gtINDEX24 gtAGG__rtDWork)) (iff constraint79 (= gtINDEX25 gtAGG__rtDWork)) (iff constraint80 (= gtINDEX26 gtAGG__rtDWork)) (iff constraint81 (= gtINDEX27 gtAGG__rtDWork)) (iff constraint82 (= gtINDEX28 gtAGG__rtDWork)) (iff constraint83 (= gtINDEX29 gtAGG__rtDWork)) (iff constraint84 $x310) (iff constraint85 (= gtINDEX31 gtAGG__rtDWork)) (iff constraint86 $x314) (iff constraint87 (= gtINDEX33 gtAGG__rtDWork)) (iff constraint88 (= gtINDEX34 gtAGG__rtDWork)) (iff constraint89 $x319) (iff constraint90 (= gtINDEX36 gtAGG__rtDWork)) (iff constraint91 (= gtINDEX37 gtAGG__rtDWork)) (iff constraint92 $x324) (iff constraint93 (= gtINDEX39 gtAGG__rtDWork)) (iff constraint94 $x328) (iff constraint95 (= gtINDEX41 gtAGG__rtDWork)) (iff constraint96 $x332) (iff constraint97 (= gtINDEX43 gtAGG__rtDWork)) (iff constraint98 $x336) (iff constraint99 (= gtINDEX45 gtAGG__rtDWork)) (iff constraint100 $x340) (iff constraint101 (= gtINDEX47 gtAGG__rtDWork)) (iff constraint102 (= gtINDEX48 gtAGG__rtDWork)) (iff constraint103 $x345) (iff constraint104 (= gtINDEX50 gtAGG__rtDWork)) (iff constraint105 $x349) (iff constraint106 (= gtINDEX52 gtAGG__rtDWork)) (iff constraint107 (= gtINDEX53 gtAGG__rtDWork)) (iff constraint108 $x354) (iff constraint109 (= gtINDEX55 gtAGG__rtDWork)) (iff constraint110 $x358) (iff constraint111 (= gtINDEX57 gtAGG__rtDWork)) (iff constraint112 (= gtINDEX58 gtAGG__rtDWork)) (iff constraint113 (= gtINDEX59 gtAGG__rtDWork)) (iff constraint114 (= gtINDEX60 gtAGG__rtDWork)) (iff constraint115 (= gtINDEX61 gtAGG__rtDWork)) (iff constraint116 $x366) (iff constraint117 (= gtINDEX63 gtAGG__rtDWork)) (iff constraint118 $x370) (iff constraint119 (= gtINDEX65 gtAGG__rtDWork)) (iff constraint120 $x374) (iff constraint121 (= gtINDEX67 gtAGG__rtDWork)) (iff constraint122 $x378)))
(and $x625 $x626)))))))))))))))))))))))))))))))))))))))))))))))))))))))))))))))))))))))))))))))
)
